sat

(objectives
 ((bvadd PriceProv8 (bvadd PriceProv7 (bvadd PriceProv6 (bvadd PriceProv5 (bvadd PriceProv4 (bvadd PriceProv3 (bvadd PriceProv1 PriceProv2))))))) (_ bv7191 32))
)
;; statistics
(
 :cnf-variables 999
 :cnf-literals 3088
 :cnf-clauses 1383
 :sat-checks 13
 :sat-restarts 57
 :sat-decisions 101790
 :sat-random-decisions 44
 :sat-propagations 690879039
 :sat-theory-propagations 15
 :sat-watched-clauses-visited 754320694
 :sat-binary-watched-clauses-visited 461598380
 :sat-conflicts 38847
 :sat-theory-conflicts 0
 :theory-necessary-interface-equalities 0
 :theory-extra-interface-equalities 0
 :euf-total-calls 109731
 :euf-complete-calls 12
 :euf-conflicts 0
 :euf-implications 15
 :euf-explanations 4
 :euf-egraph-nodes-created 61560
 :euf-egraph-nodes-deleted 58848
 :euf-num-asserted-equalities 1928452
 :euf-num-asserted-inequalities 990942
 :euf-num-merges 4144439
 :euf-num-merges-undone 4144439
 :euf-num-atoms-retold 14016
 :la-total-calls 109731
 :la-complete-calls 12
 :la-conflicts 0
 :la-implications 0
 :la-explanations 0
 :la-num-equalities-split 0
 :la-num-tableau-rows 0
 :la-num-tableau-variables 0
 :bv-total-calls 109731
 :bv-complete-calls 12
 :bv-conflicts 0
 :bv-implications 0
 :bv-explanations 0
 :fp-total-calls 109731
 :fp-complete-calls 12
 :fp-conflicts 0
 :fp-implications 0
 :fp-explanations 0
 :arr-total-calls 109731
 :arr-complete-calls 12
 :arr-conflicts 0
 :arr-implications 0
 :arr-explanations 0
 :arr-write-lemmas-added 0
 :arr-row-lemmas-added 0
 :arr-ext-lemmas-added 0
 :arr-const-lemmas-added 0
 :na-total-calls 109731
 :na-complete-calls 12
 :na-conflicts 0
 :na-implications 0
 :na-explanations 0
 :na-num_nonlinear_multiplications 0
 :na-num_axiom_checks 0
 :na-num_zero_lemmas 0
 :na-num_sign_lemmas 0
 :na-num_neutral_lemmas 0
 :na-num_proportionality_lemmas 0
 :na-num_bound_lemmas 0
 :na-num_tangent_lemmas 0
 :na-num_monotonicity_lemmas 0
 :na-num_sat_checks 0
 :na-axiom_check_time 0.000
 :na-sat_check_time 0.000
 :time-seconds 147.955
 :memory-mb 111.891
)
